n_res = 4;
rc = [ 0, 0, 0, 0 ];
n_tasks = 30;
d = [ 3, 8, 5, 7, 1, 8, 10, 2, 8, 10, 5, 1, 4, 1, 7, 6, 10, 4, 10, 9, 6, 5, 3, 2, 4, 7, 9, 10, 10, 6 ];
rr = [| 0, 0, 0, 0, 0, 0, 0, 0, 0, 0, 0, 0, 0, 0, 0, 0, 0, 0, 0, 0, 0, 0, 0, 0, 0, 0, 0, 0, 0, 0
      | 0, 0, 0, 0, 0, 0, 0, 0, 0, 0, 0, 0, 0, 0, 0, 0, 0, 0, 0, 0, 0, 0, 0, 0, 0, 0, 0, 0, 0, 0
      | 0, 0, 0, 0, 0, 0, 0, 0, 0, 0, 0, 0, 0, 0, 0, 0, 0, 0, 0, 0, 0, 0, 0, 0, 0, 0, 0, 0, 0, 0
      | 0, 0, 0, 0, 0, 0, 0, 0, 0, 0, 0, 0, 0, 0, 0, 0, 0, 0, 0, 0, 0, 0, 0, 0, 0, 0, 0, 0, 0, 0 |];
suc = [ { 6, 7, 17 },
       { 15 },
       { 4, 8, 16 },
       { 5, 11, 18 },
       { 10, 28 },
       { 9, 13, 27 },
       { 10, 12, 21 },
       { 14, 17 },
       { 19 },
       { 23 },
       { 25 },
       { 25 },
       { 30 },
       { 25 },
       { 18, 22, 29 },
       { 21 },
       { 20, 24 },
       { 28 },
       { 26 },
       { 26 },
       { 30 },
       { 23 },
       { 30 },
       { 27 },
       { 28 },
       { 29 },
       { 29 },
       {  },
       {  },
       {  } ];
